p cnf 91 294
a 11 87 0
e 1 2 3 4 5 6 7 8 9 10 12 13 14 15 16 17 18 19 20 21 22 23 24 25 26 27 28 29 30 31 32 33 34 35 36 37 38 39 40 41 42 43 44 45 46 47 48 49 50 51 52 53 54 55 56 57 58 59 60 61 62 63 64 65 66 67 68 69 70 71 72 73 74 75 76 77 78 79 80 81 82 83 84 85 86 88 89 90 91 0
4 -2 0
4 -3 0
2 3 -4 0
1 4 -5 0
-1 -4 -5 0
1 -4 5 0
-1 4 5 0
-6 -4 -7 0
6 4 -7 0
-6 4 7 0
6 -4 7 0
9 7 0
9 -8 0
-7 8 -9 0
10 5 0
10 -9 0
-5 9 -10 0
11 2 0
11 7 0
-2 -7 -11 0
-12 -10 0
-12 -11 0
10 11 12 0
-13 -11 0
-13 -3 0
11 3 13 0
15 -13 0
15 -14 0
13 14 -15 0
11 15 -16 0
-11 -15 -16 0
11 -15 16 0
-11 15 16 0
18 16 0
18 -17 0
-16 17 -18 0
19 -10 0
19 18 0
10 -18 -19 0
20 4 0
20 6 0
-4 -6 -20 0
-6 -21 -22 0
6 21 -22 0
-6 21 22 0
6 -21 22 0
7 -22 -23 0
-7 22 -23 0
7 22 23 0
-7 -22 23 0
-24 -23 0
-24 -2 0
23 2 24 0
-25 -4 0
-25 -4 0
4 25 0
-26 2 0
-26 -3 0
-2 3 26 0
27 -25 0
27 26 0
25 -26 -27 0
-4 -27 -28 0
4 27 -28 0
-4 27 28 0
4 -27 28 0
-29 -28 0
-29 7 0
28 -7 29 0
-15 29 -30 0
15 -29 -30 0
-15 -29 30 0
15 29 30 0
24 -30 -31 0
-24 30 -31 0
24 30 31 0
-24 -30 31 0
32 -20 0
32 -31 0
20 31 -32 0
3 -2 -33 0
-3 2 -33 0
3 2 33 0
-3 -2 33 0
34 26 0
34 17 0
-26 -17 -34 0
-35 8 0
-35 -34 0
-8 34 35 0
36 33 0
36 -35 0
-33 35 -36 0
-37 -9 0
-37 -6 0
9 6 37 0
-37 3 -38 0
37 -3 -38 0
-37 -3 38 0
37 3 38 0
39 -38 0
39 -6 0
38 6 -39 0
-40 -36 0
-40 39 0
36 -39 40 0
41 -32 0
41 -40 0
32 40 -41 0
-42 19 0
-42 41 0
-19 -41 42 0
43 -34 0
43 -4 0
34 4 -43 0
37 -26 -44 0
-37 26 -44 0
37 26 44 0
-37 -26 44 0
13 -44 -45 0
-13 44 -45 0
13 44 45 0
-13 -44 45 0
-43 45 -46 0
43 -45 -46 0
-43 -45 46 0
43 45 46 0
-47 37 0
-47 6 0
-37 -6 47 0
-48 14 0
-48 -25 0
-14 25 48 0
-26 -49 -50 0
26 49 -50 0
-26 49 50 0
26 -49 50 0
-51 -48 0
-51 50 0
48 -50 51 0
52 51 0
52 17 0
-51 -17 -52 0
53 47 0
53 -52 0
-47 52 -53 0
-54 -25 0
-54 -8 0
25 8 54 0
56 54 0
56 -55 0
-54 55 -56 0
57 53 0
57 -56 0
-53 56 -57 0
58 -46 0
58 57 0
46 -57 -58 0
59 42 0
59 -58 0
-42 58 -59 0
60 9 0
60 -34 0
-9 34 -60 0
61 1 0
61 -21 0
-1 21 -61 0
-62 -21 0
-62 5 0
21 -5 62 0
63 61 0
63 62 0
-61 -62 -63 0
-64 14 0
-64 1 0
-14 -1 64 0
-65 14 0
-65 -61 0
-14 61 65 0
-66 -64 0
-66 65 0
64 -65 66 0
-67 -63 0
-67 -66 0
63 66 67 0
60 -67 -68 0
-60 67 -68 0
60 67 68 0
-60 -67 68 0
69 6 0
69 2 0
-6 -2 -69 0
-70 69 0
-70 69 0
-69 70 0
23 70 -71 0
-23 -70 -71 0
23 -70 71 0
-23 70 71 0
72 70 0
72 -15 0
-70 15 -72 0
-71 72 -73 0
71 -72 -73 0
-71 -72 73 0
71 72 73 0
74 8 0
74 -3 0
-8 3 -74 0
75 73 0
75 74 0
-73 -74 -75 0
-68 75 -76 0
68 -75 -76 0
-68 -75 76 0
68 75 76 0
77 -27 0
77 -54 0
27 54 -77 0
78 49 0
78 9 0
-49 -9 -78 0
79 34 0
79 78 0
-34 -78 -79 0
-80 77 0
-80 -79 0
-77 79 80 0
81 8 0
81 25 0
-8 -25 -81 0
80 81 -82 0
-80 -81 -82 0
80 -81 82 0
-80 81 82 0
-76 -82 -83 0
76 82 -83 0
-76 82 83 0
76 -82 83 0
-84 65 0
-84 1 0
-65 -1 84 0
85 -61 0
85 22 0
61 -22 -85 0
-86 -3 0
-86 8 0
3 -8 86 0
-87 85 0
-87 -86 0
-85 86 87 0
84 -87 -88 0
-84 87 -88 0
84 87 88 0
-84 -87 88 0
89 -83 0
89 88 0
83 -88 -89 0
59 -89 -90 0
-59 89 -90 0
59 89 90 0
-59 -89 90 0
12 90 -91 0
-12 -90 -91 0
12 -90 91 0
-12 90 91 0
88 -34 -22 -57 69 0
-50 31 -82 -42 29 0
-10 -54 -15 -72 -14 0
-20 33 -10 76 6 0
-30 -77 38 21 -66 0
-87 50 -46 -22 19 0
-32 75 -45 0
1 -68 -15 61 -6 -37 -84 0
5 -70 -20 79 -56 1 80 0
26 -23 81 -12 80 7 0
-59 8 5 11 4 31 -57 -56 0
-85 -77 -26 0
51 -59 73 0
-23 -71 -36 0
52 -71 36 -39 -68 0
-4 -60 -55 35 -48 -50 -23 0
21 2 -34 70 39 0
-57 33 -53 -36 0
64 -87 73 -59 -7 0
14 -57 83 44 59 -43 0
-25 -9 60 -53 39 29 -56 -89 0
-49 -86 -76 -66 -35 1 0
35 -55 67 45 -71 0
-67 -22 -90 7 9 4 -58 0
55 12 53 11 -31 30 0
87 -27 26 0
-39 -35 76 -72 79 59 -83 0
91 0
